
Log started (V11.0.0) Sun Apr 13 14:46:14 2008

Tried aggregator 1 time.
Reduced MIP has 510 rows, 5001 columns, and 10010 nonzeros.
Presolve time =    0.03 sec.
Clique table members: 500.
MIP emphasis: balance optimality and feasibility.
MIP search method: dynamic search.
Parallel mode: none, using 1 thread.
Root relaxation solution time =    0.13 sec.

        Nodes                                         Cuts/
   Node  Left     Objective  IInf  Best Integer     Best Node    ItCnt     Gap

*     0+    0                        24474.0000      466.0564      555   98.10%
*     0+    0                          491.0000      466.0564      555    5.08%
      0     0      467.0000    24      491.0000     Fract: 10      568    4.89%
*     0+    0                          487.0000      467.0000      568    4.11%
      0     0      467.0000    26      487.0000     Covers: 1      569    4.11%
*     0+    0                          486.0000      467.0000      569    3.91%
*     0+    0                          483.0000      467.0000      569    3.31%
*     0+    0                          474.0000      467.0000      569    1.48%
*     0+    0                          473.0000      467.0000      569    1.27%
*     0+    0                          472.0000      467.0000      569    1.06%

Repeating presolve.
Tried aggregator 1 time.
MIP Presolve eliminated 1 rows and 1950 columns.
Aggregator did 5 substitutions.
Reduced MIP has 504 rows, 3046 columns, and 6100 nonzeros.
Tried aggregator 1 time.
Represolve time =    0.11 sec.
Clique table members: 494.
MIP emphasis: balance optimality and feasibility.
MIP search method: dynamic search.
Parallel mode: none, using 1 thread.
Root relaxation solution time =    0.09 sec.

        Nodes                                         Cuts/
   Node  Left     Objective  IInf  Best Integer     Best Node    ItCnt     Gap

      0     0      467.0000    18      472.0000      467.0000      501    1.06%
      0     2      467.0000    18      472.0000      467.0000      501    1.06%
    100    70      469.0000    14      472.0000      467.0000     4795    1.06%
*   180+  114                          471.0000      467.0000     8823    0.85%
    200   130      468.0000    20      471.0000      467.0000     9512    0.85%
*   210+  128                          470.0000      467.0000     9764    0.64%
    300   161    infeasible            470.0000      467.0000    11901    0.64%
    400   248      468.0000    19      470.0000      467.0000    14782    0.64%
    500   318      468.0000    18      470.0000      467.0000    17593    0.64%
*   534+  228                          469.0000      467.0000    20607    0.43%
    600   221      468.0000    44      469.0000      467.0000    24526    0.43%
    700   215      468.0000    21      469.0000      467.0000    31225    0.43%
    800   183    infeasible            469.0000      467.0000    39064    0.43%
    900   211      468.0000    12      469.0000      467.0000    44688    0.43%
   1000   289      468.0000    21      469.0000      467.0000    50545    0.43%
Elapsed time =  21.44 sec. (tree size =  0.38 MB, solutions = 11)
   1100   366      468.0000    18      469.0000      467.0000    55414    0.43%
*  1134+   34                          468.0000      467.0000    57658    0.21%
   1200    77      467.0000    20      468.0000      467.0000    65189    0.21%
   1300   129    infeasible            468.0000      467.0000    75757    0.21%
   1400   181      467.0000    47      468.0000      467.0000    90615    0.21%
   1500   225      467.0000    29      468.0000      467.0000   106863    0.21%
   1600   283    infeasible            468.0000      467.0000   124179    0.21%
   1700   339      467.0000    32      468.0000      467.0000   140618    0.21%
   1800   379    infeasible            468.0000      467.0000   159255    0.21%
   1900   403      467.0000    48      468.0000      467.0000   182493    0.21%
   2000   457      467.0000    45      468.0000      467.0000   200959    0.21%
Elapsed time =  62.27 sec. (tree size =  0.45 MB, solutions = 12)
   2100   503      467.0000    43      468.0000      467.0000   219634    0.21%
   2200   548      467.0000    40      468.0000      467.0000   239998    0.21%
   2300   624      467.0000    30      468.0000      467.0000   251288    0.21%
   2400   708      467.0000    28      468.0000      467.0000   261407    0.21%
   2500   772      467.0000    44      468.0000      467.0000   275587    0.21%
   2600   846      467.0000    30      468.0000      467.0000   289615    0.21%
   2700   908      467.0000    33      468.0000      467.0000   306181    0.21%
   2800   992      467.0000    44      468.0000      467.0000   318749    0.21%
   2900  1077      467.0000    34      468.0000      467.0000   328616    0.21%
   3000  1141      467.0000    33      468.0000      467.0000   345324    0.21%
Elapsed time = 115.69 sec. (tree size =  1.20 MB, solutions = 12)
   3100  1225    infeasible            468.0000      467.0000   357788    0.21%
   3200  1305      467.0000    39      468.0000      467.0000   371756    0.21%
   3300  1371      467.0000    35      468.0000      467.0000   387588    0.21%
   3400  1457      467.0000    51      468.0000      467.0000   398856    0.21%
   3500  1537      467.0000    43      468.0000      467.0000   412595    0.21%
   3600  1607      467.0000    39      468.0000      467.0000   427635    0.21%
   3700  1681      467.0000    45      468.0000      467.0000   443055    0.21%
   3800  1737      467.0000    46      468.0000      467.0000   463839    0.21%
   3900  1819      467.0000    40      468.0000      467.0000   477822    0.21%
   4000  1903      467.0000    46      468.0000      467.0000   490149    0.21%
Elapsed time = 176.81 sec. (tree size =  2.03 MB, solutions = 12)
   4100  1985    infeasible            468.0000      467.0000   501698    0.21%
   4200  2055      467.0000    53      468.0000      467.0000   516085    0.21%
   4300  2133      467.0000    33      468.0000      467.0000   530221    0.21%
   4400  2193      467.0000    34      468.0000      467.0000   547817    0.21%
   4500  2267      467.0000    37      468.0000      467.0000   564077    0.21%
   4600  2347      467.0000    32      468.0000      467.0000   576516    0.21%
   4700  2423    infeasible            468.0000      467.0000   592496    0.21%
   4800  2480      467.0000    63      468.0000      467.0000   612655    0.21%
   4900  2554    infeasible            468.0000      467.0000   630082    0.21%
*  4934+    1                          467.0000      467.0000   641679    0.00%

Cover cuts applied:  1365
Mixed integer rounding cuts applied:  9
Gomory fractional cuts applied:  2

Solution pool: 13 solutions saved.

MIP - Integer optimal solution:  Objective = 4.6700000000e+002
Solution time =  254.63 sec.  Iterations = 641679  Nodes = 4934


Incumbent solution
Variable Name           Solution Value
Cmax                        467.000000
X_1_4                         1.000000
X_2_10                        1.000000
X_3_6                         1.000000
X_4_8                         1.000000
X_5_2                         1.000000
X_6_6                         1.000000
X_7_2                         1.000000
X_8_7                         1.000000
X_9_6                         1.000000
X_10_6                        1.000000
X_11_7                        1.000000
X_12_1                        1.000000
X_13_8                        1.000000
X_14_5                        1.000000
X_15_2                        1.000000
X_16_4                        1.000000
X_17_4                        1.000000
X_18_8                        1.000000
X_19_3                        1.000000
X_20_1                        1.000000
X_21_3                        1.000000
X_22_1                        1.000000
X_23_9                        1.000000
X_24_5                        1.000000
X_25_9                        1.000000
X_26_3                        1.000000
X_27_10                       1.000000
X_28_4                        1.000000
X_29_4                        1.000000
X_30_4                        1.000000
X_31_6                        1.000000
X_32_1                        1.000000
X_33_10                       1.000000
X_34_9                        1.000000
X_35_1                        1.000000
X_36_9                        1.000000
X_37_10                       1.000000
X_38_6                        1.000000
X_39_8                        1.000000
X_40_9                        1.000000
X_41_5                        1.000000
X_42_3                        1.000000
X_43_3                        1.000000
X_44_6                        1.000000
X_45_5                        1.000000
X_46_3                        1.000000
X_47_6                        1.000000
X_48_10                       1.000000
X_49_8                        1.000000
X_50_9                        1.000000
X_51_6                        1.000000
X_52_5                        1.000000
X_53_10                       1.000000
X_54_9                        1.000000
X_55_10                       1.000000
X_56_6                        1.000000
X_57_6                        1.000000
X_58_5                        1.000000
X_59_1                        1.000000
X_60_10                       1.000000
X_61_9                        1.000000
X_62_7                        1.000000
X_63_6                        1.000000
X_64_8                        1.000000
X_65_10                       1.000000
X_66_9                        1.000000
X_67_3                        1.000000
X_68_4                        1.000000
X_69_5                        1.000000
X_70_5                        1.000000
X_71_5                        1.000000
X_72_10                       1.000000
X_73_5                        1.000000
X_74_9                        1.000000
X_75_2                        1.000000
X_76_9                        1.000000
X_77_10                       1.000000
X_78_7                        1.000000
X_79_5                        1.000000
X_80_3                        1.000000
X_81_8                        1.000000
X_82_8                        1.000000
X_83_10                       1.000000
X_84_5                        1.000000
X_85_3                        1.000000
X_86_6                        1.000000
X_87_1                        1.000000
X_88_10                       1.000000
X_89_9                        1.000000
X_90_9                        1.000000
X_91_2                        1.000000
X_92_10                       1.000000
X_93_1                        1.000000
X_94_8                        1.000000
X_95_10                       1.000000
X_96_9                        1.000000
X_97_8                        1.000000
X_98_10                       1.000000
X_99_8                        1.000000
X_100_8                       1.000000
X_101_2                       1.000000
X_102_6                       1.000000
X_103_4                       1.000000
X_104_9                       1.000000
X_105_1                       1.000000
X_106_6                       1.000000
X_107_2                       1.000000
X_108_3                       1.000000
X_109_5                       1.000000
X_110_4                       1.000000
X_111_8                       1.000000
X_112_5                       1.000000
X_113_9                       1.000000
X_114_10                      1.000000
X_115_1                       1.000000
X_116_10                      1.000000
X_117_8                       1.000000
X_118_9                       1.000000
X_119_7                       1.000000
X_120_8                       1.000000
X_121_1                       1.000000
X_122_3                       1.000000
X_123_1                       1.000000
X_124_7                       1.000000
X_125_7                       1.000000
X_126_2                       1.000000
X_127_7                       1.000000
X_128_7                       1.000000
X_129_3                       1.000000
X_130_3                       1.000000
X_131_3                       1.000000
X_132_2                       1.000000
X_133_8                       1.000000
X_134_5                       1.000000
X_135_9                       1.000000
X_136_3                       1.000000
X_137_7                       1.000000
X_138_3                       1.000000
X_139_5                       1.000000
X_140_6                       1.000000
X_141_9                       1.000000
X_142_4                       1.000000
X_143_10                      1.000000
X_144_1                       1.000000
X_145_5                       1.000000
X_146_9                       1.000000
X_147_4                       1.000000
X_148_2                       1.000000
X_149_5                       1.000000
X_150_1                       1.000000
X_151_1                       1.000000
X_152_6                       1.000000
X_153_8                       1.000000
X_154_7                       1.000000
X_155_3                       1.000000
X_156_1                       1.000000
X_157_4                       1.000000
X_158_6                       1.000000
X_159_3                       1.000000
X_160_7                       1.000000
X_161_5                       1.000000
X_162_5                       1.000000
X_163_2                       1.000000
X_164_3                       1.000000
X_165_6                       1.000000
X_166_8                       1.000000
X_167_5                       1.000000
X_168_8                       1.000000
X_169_7                       1.000000
X_170_8                       1.000000
X_171_8                       1.000000
X_172_6                       1.000000
X_173_1                       1.000000
X_174_5                       1.000000
X_175_2                       1.000000
X_176_2                       1.000000
X_177_10                      1.000000
X_178_6                       1.000000
X_179_4                       1.000000
X_180_3                       1.000000
X_181_2                       1.000000
X_182_1                       1.000000
X_183_9                       1.000000
X_184_2                       1.000000
X_185_9                       1.000000
X_186_7                       1.000000
X_187_10                      1.000000
X_188_6                       1.000000
X_189_2                       1.000000
X_190_7                       1.000000
X_191_6                       1.000000
X_192_9                       1.000000
X_193_3                       1.000000
X_194_8                       1.000000
X_195_10                      1.000000
X_196_5                       1.000000
X_197_10                      1.000000
X_198_8                       1.000000
X_199_5                       1.000000
X_200_4                       1.000000
X_201_3                       1.000000
X_202_1                       1.000000
X_203_1                       1.000000
X_204_3                       1.000000
X_205_9                       1.000000
X_206_10                      1.000000
X_207_1                       1.000000
X_208_2                       1.000000
X_209_10                      1.000000
X_210_1                       1.000000
X_211_3                       1.000000
X_212_2                       1.000000
X_213_10                      1.000000
X_214_10                      1.000000
X_215_8                       1.000000
X_216_10                      1.000000
X_217_1                       1.000000
X_218_8                       1.000000
X_219_3                       1.000000
X_220_10                      1.000000
X_221_9                       1.000000
X_222_9                       1.000000
X_223_2                       1.000000
X_224_3                       1.000000
X_225_9                       1.000000
X_226_7                       1.000000
X_227_1                       1.000000
X_228_4                       1.000000
X_229_6                       1.000000
X_230_10                      1.000000
X_231_8                       1.000000
X_232_6                       1.000000
X_233_1                       1.000000
X_234_2                       1.000000
X_235_9                       1.000000
X_236_6                       1.000000
X_237_1                       1.000000
X_238_6                       1.000000
X_239_4                       1.000000
X_240_1                       1.000000
X_241_5                       1.000000
X_242_3                       1.000000
X_243_3                       1.000000
X_244_1                       1.000000
X_245_10                      1.000000
X_246_3                       1.000000
X_247_2                       1.000000
X_248_10                      1.000000
X_249_10                      1.000000
X_250_6                       1.000000
X_251_3                       1.000000
X_252_3                       1.000000
X_253_2                       1.000000
X_254_7                       1.000000
X_255_4                       1.000000
X_256_7                       1.000000
X_257_5                       1.000000
X_258_7                       1.000000
X_259_2                       1.000000
X_260_6                       1.000000
X_261_4                       1.000000
X_262_9                       1.000000
X_263_7                       1.000000
X_264_10                      1.000000
X_265_5                       1.000000
X_266_9                       1.000000
X_267_8                       1.000000
X_268_4                       1.000000
X_269_5                       1.000000
X_270_5                       1.000000
X_271_5                       1.000000
X_272_1                       1.000000
X_273_7                       1.000000
X_274_3                       1.000000
X_275_5                       1.000000
X_276_7                       1.000000
X_277_5                       1.000000
X_278_8                       1.000000
X_279_10                      1.000000
X_280_3                       1.000000
X_281_5                       1.000000
X_282_5                       1.000000
X_283_1                       1.000000
X_284_5                       1.000000
X_285_7                       1.000000
X_286_5                       1.000000
X_287_4                       1.000000
X_288_8                       1.000000
X_289_3                       1.000000
X_290_3                       1.000000
X_291_1                       1.000000
X_292_4                       1.000000
X_293_7                       1.000000
X_294_1                       1.000000
X_295_2                       1.000000
X_296_4                       1.000000
X_297_10                      1.000000
X_298_2                       1.000000
X_299_9                       1.000000
X_300_10                      1.000000
X_301_4                       1.000000
X_302_2                       1.000000
X_303_6                       1.000000
X_304_7                       1.000000
X_305_1                       1.000000
X_306_4                       1.000000
X_307_3                       1.000000
X_308_4                       1.000000
X_309_6                       1.000000
X_310_1                       1.000000
X_311_9                       1.000000
X_312_10                      1.000000
X_313_9                       1.000000
X_314_4                       1.000000
X_315_5                       1.000000
X_316_7                       1.000000
X_317_8                       1.000000
X_318_7                       1.000000
X_319_4                       1.000000
X_320_7                       1.000000
X_321_10                      1.000000
X_322_7                       1.000000
X_323_2                       1.000000
X_324_1                       1.000000
X_325_4                       1.000000
X_326_2                       1.000000
X_327_7                       1.000000
X_328_3                       1.000000
X_329_9                       1.000000
X_330_2                       1.000000
X_331_8                       1.000000
X_332_10                      1.000000
X_333_6                       1.000000
X_334_8                       1.000000
X_335_4                       1.000000
X_336_6                       1.000000
X_337_10                      1.000000
X_338_3                       1.000000
X_339_2                       1.000000
X_340_8                       1.000000
X_341_2                       1.000000
X_342_7                       1.000000
X_343_4                       1.000000
X_344_7                       1.000000
X_345_10                      1.000000
X_346_6                       1.000000
X_347_2                       1.000000
X_348_10                      1.000000
X_349_10                      1.000000
X_350_4                       1.000000
X_351_7                       1.000000
X_352_3                       1.000000
X_353_5                       1.000000
X_354_5                       1.000000
X_355_4                       1.000000
X_356_5                       1.000000
X_357_8                       1.000000
X_358_7                       1.000000
X_359_4                       1.000000
X_360_5                       1.000000
X_361_7                       1.000000
X_362_6                       1.000000
X_363_6                       1.000000
X_364_9                       1.000000
X_365_1                       1.000000
X_366_6                       1.000000
X_367_1                       1.000000
X_368_5                       1.000000
X_369_3                       1.000000
X_370_1                       1.000000
X_371_4                       1.000000
X_372_4                       1.000000
X_373_1                       1.000000
X_374_6                       1.000000
X_375_7                       1.000000
X_376_4                       1.000000
X_377_9                       1.000000
X_378_9                       1.000000
X_379_3                       1.000000
X_380_8                       1.000000
X_381_9                       1.000000
X_382_7                       1.000000
X_383_3                       1.000000
X_384_3                       1.000000
X_385_2                       1.000000
X_386_3                       1.000000
X_387_5                       1.000000
X_388_1                       1.000000
X_389_6                       1.000000
X_390_8                       1.000000
X_391_7                       1.000000
X_392_8                       1.000000
X_393_7                       1.000000
X_394_8                       1.000000
X_395_10                      1.000000
X_396_2                       1.000000
X_397_10                      1.000000
X_398_10                      1.000000
X_399_5                       1.000000
X_400_2                       1.000000
X_401_2                       1.000000
X_402_1                       1.000000
X_403_6                       1.000000
X_404_2                       1.000000
X_405_9                       1.000000
X_406_8                       1.000000
X_407_9                       1.000000
X_408_3                       1.000000
X_409_2                       1.000000
X_410_2                       1.000000
X_411_5                       1.000000
X_412_7                       1.000000
X_413_1                       1.000000
X_414_7                       1.000000
X_415_7                       1.000000
X_416_2                       1.000000
X_417_10                      1.000000
X_418_8                       1.000000
X_419_6                       1.000000
X_420_10                      1.000000
X_421_8                       1.000000
X_422_9                       1.000000
X_423_6                       1.000000
X_424_4                       1.000000
X_425_7                       1.000000
X_426_8                       1.000000
X_427_6                       1.000000
X_428_2                       1.000000
X_429_5                       1.000000
X_430_6                       1.000000
X_431_9                       1.000000
X_432_4                       1.000000
X_433_7                       1.000000
X_434_4                       1.000000
X_435_10                      1.000000
X_436_1                       1.000000
X_437_3                       1.000000
X_438_2                       1.000000
X_439_10                      1.000000
X_440_5                       1.000000
X_441_4                       1.000000
X_442_4                       1.000000
X_443_10                      1.000000
X_444_3                       1.000000
X_445_4                       1.000000
X_446_2                       1.000000
X_447_5                       1.000000
X_448_5                       1.000000
X_449_5                       1.000000
X_450_4                       1.000000
X_451_2                       1.000000
X_452_4                       1.000000
X_453_1                       1.000000
X_454_8                       1.000000
X_455_4                       1.000000
X_456_2                       1.000000
X_457_2                       1.000000
X_458_7                       1.000000
X_459_9                       1.000000
X_460_8                       1.000000
X_461_3                       1.000000
X_462_6                       1.000000
X_463_10                      1.000000
X_464_4                       1.000000
X_465_5                       1.000000
X_466_8                       1.000000
X_467_10                      1.000000
X_468_2                       1.000000
X_469_3                       1.000000
X_470_6                       1.000000
X_471_10                      1.000000
X_472_9                       1.000000
X_473_8                       1.000000
X_474_1                       1.000000
X_475_9                       1.000000
X_476_3                       1.000000
X_477_6                       1.000000
X_478_2                       1.000000
X_479_9                       1.000000
X_480_3                       1.000000
X_481_4                       1.000000
X_482_6                       1.000000
X_483_9                       1.000000
X_484_6                       1.000000
X_485_5                       1.000000
X_486_1                       1.000000
X_487_3                       1.000000
X_488_6                       1.000000
X_489_4                       1.000000
X_490_8                       1.000000
X_491_4                       1.000000
X_492_10                      1.000000
X_493_8                       1.000000
X_494_1                       1.000000
X_495_4                       1.000000
X_496_4                       1.000000
X_497_5                       1.000000
X_498_5                       1.000000
X_499_2                       1.000000
X_500_8                       1.000000
All other variables in the range 1-5001 are 0.
